% File represents an instance of a Composite Structure problem to be solved by a CP framework
% Created on 2025-03-26 10:42:13.224
T = 58;
n = 36;
m = 60;
edges = [(1, 2),
(7, 8),
(13, 14),
(20, 19),
(26, 25),
(32, 31),
(3, 2),
(9, 8),
(15, 14),
(20, 21),
(27, 26),
(32, 33),
(3, 4),
(9, 10),
(15, 16),
(22, 21),
(27, 28),
(34, 33),
(5, 4),
(11, 10),
(17, 16),
(22, 23),
(28, 29),
(34, 35),
(5, 6),
(12, 11),
(17, 18),
(24, 23),
(30, 29),
(35, 36),
(7, 1),
(13, 7),
(13, 19),
(19, 25),
(31, 25),
(8, 2),
(14, 8),
(20, 14),
(20, 26),
(26, 32),
(9, 3),
(15, 9),
(15, 21),
(27, 21),
(27, 33),
(4, 10),
(16, 10),
(22, 16),
(22, 28),
(34, 28),
(5, 11),
(17, 11),
(23, 17),
(23, 29),
(35, 29),
(12, 6),
(18, 12),
(24, 18),
(24, 30),
(30, 36)];
counts = [|20, 2, 20, 6,
|20, 2, 20, 4,
|20, 4, 20, 6,
|20, 2, 20, 6,
|20, 2, 20, 10,
|18, 2, 18, 8,
|20, 2, 20, 12,
|20, 2, 20, 6,
|20, 4, 20, 8,
|20, 2, 20, 4,
|20, 2, 20, 6,
|20, 2, 20, 8,
|20, 6, 20, 12,
|20, 4, 20, 10,
|20, 4, 20, 14,
|20, 2, 20, 10,
|20, 4, 20, 10,
|20, 2, 20, 10,
|20, 2, 20, 10,
|20, 6, 20, 12,
|20, 4, 20, 12,
|20, 4, 20, 14,
|20, 4, 20, 12,
|20, 6, 20, 12,
|20, 2, 20, 8,
|20, 6, 20, 10,
|20, 6, 20, 12,
|20, 4, 20, 8,
|20, 2, 20, 8,
|20, 4, 20, 8,
|20, 4, 20, 8,
|20, 4, 20, 10,
|20, 2, 20, 10,
|20, 4, 20, 12,
|20, 2, 20, 10,
|20, 2, 20, 4|];
